c *********************************
c * Circuit generated by BenCGen
c *
c * Parity_465
c *
c * Ports with 1 gate(s): 1
c * Ports with 2 gate(s): 465
c * Total gates: 466
c *********************************
p cnf 931 1861
1 468 0
-1 -468 0
1 -467 0
468 -467 0
-1 -468 467 0
1 2 -469 0
-1 2 469 0
1 -2 469 0
-1 -2 -469 0
3 4 -470 0
-3 4 470 0
3 -4 470 0
-3 -4 -470 0
5 6 -471 0
-5 6 471 0
5 -6 471 0
-5 -6 -471 0
7 8 -472 0
-7 8 472 0
7 -8 472 0
-7 -8 -472 0
9 10 -473 0
-9 10 473 0
9 -10 473 0
-9 -10 -473 0
11 12 -474 0
-11 12 474 0
11 -12 474 0
-11 -12 -474 0
13 14 -475 0
-13 14 475 0
13 -14 475 0
-13 -14 -475 0
15 16 -476 0
-15 16 476 0
15 -16 476 0
-15 -16 -476 0
17 18 -477 0
-17 18 477 0
17 -18 477 0
-17 -18 -477 0
19 20 -478 0
-19 20 478 0
19 -20 478 0
-19 -20 -478 0
21 22 -479 0
-21 22 479 0
21 -22 479 0
-21 -22 -479 0
23 24 -480 0
-23 24 480 0
23 -24 480 0
-23 -24 -480 0
25 26 -481 0
-25 26 481 0
25 -26 481 0
-25 -26 -481 0
27 28 -482 0
-27 28 482 0
27 -28 482 0
-27 -28 -482 0
29 30 -483 0
-29 30 483 0
29 -30 483 0
-29 -30 -483 0
31 32 -484 0
-31 32 484 0
31 -32 484 0
-31 -32 -484 0
33 34 -485 0
-33 34 485 0
33 -34 485 0
-33 -34 -485 0
35 36 -486 0
-35 36 486 0
35 -36 486 0
-35 -36 -486 0
37 38 -487 0
-37 38 487 0
37 -38 487 0
-37 -38 -487 0
39 40 -488 0
-39 40 488 0
39 -40 488 0
-39 -40 -488 0
41 42 -489 0
-41 42 489 0
41 -42 489 0
-41 -42 -489 0
43 44 -490 0
-43 44 490 0
43 -44 490 0
-43 -44 -490 0
45 46 -491 0
-45 46 491 0
45 -46 491 0
-45 -46 -491 0
47 48 -492 0
-47 48 492 0
47 -48 492 0
-47 -48 -492 0
49 50 -493 0
-49 50 493 0
49 -50 493 0
-49 -50 -493 0
51 52 -494 0
-51 52 494 0
51 -52 494 0
-51 -52 -494 0
53 54 -495 0
-53 54 495 0
53 -54 495 0
-53 -54 -495 0
55 56 -496 0
-55 56 496 0
55 -56 496 0
-55 -56 -496 0
57 58 -497 0
-57 58 497 0
57 -58 497 0
-57 -58 -497 0
59 60 -498 0
-59 60 498 0
59 -60 498 0
-59 -60 -498 0
61 62 -499 0
-61 62 499 0
61 -62 499 0
-61 -62 -499 0
63 64 -500 0
-63 64 500 0
63 -64 500 0
-63 -64 -500 0
65 66 -501 0
-65 66 501 0
65 -66 501 0
-65 -66 -501 0
67 68 -502 0
-67 68 502 0
67 -68 502 0
-67 -68 -502 0
69 70 -503 0
-69 70 503 0
69 -70 503 0
-69 -70 -503 0
71 72 -504 0
-71 72 504 0
71 -72 504 0
-71 -72 -504 0
73 74 -505 0
-73 74 505 0
73 -74 505 0
-73 -74 -505 0
75 76 -506 0
-75 76 506 0
75 -76 506 0
-75 -76 -506 0
77 78 -507 0
-77 78 507 0
77 -78 507 0
-77 -78 -507 0
79 80 -508 0
-79 80 508 0
79 -80 508 0
-79 -80 -508 0
81 82 -509 0
-81 82 509 0
81 -82 509 0
-81 -82 -509 0
83 84 -510 0
-83 84 510 0
83 -84 510 0
-83 -84 -510 0
85 86 -511 0
-85 86 511 0
85 -86 511 0
-85 -86 -511 0
87 88 -512 0
-87 88 512 0
87 -88 512 0
-87 -88 -512 0
89 90 -513 0
-89 90 513 0
89 -90 513 0
-89 -90 -513 0
91 92 -514 0
-91 92 514 0
91 -92 514 0
-91 -92 -514 0
93 94 -515 0
-93 94 515 0
93 -94 515 0
-93 -94 -515 0
95 96 -516 0
-95 96 516 0
95 -96 516 0
-95 -96 -516 0
97 98 -517 0
-97 98 517 0
97 -98 517 0
-97 -98 -517 0
99 100 -518 0
-99 100 518 0
99 -100 518 0
-99 -100 -518 0
101 102 -519 0
-101 102 519 0
101 -102 519 0
-101 -102 -519 0
103 104 -520 0
-103 104 520 0
103 -104 520 0
-103 -104 -520 0
105 106 -521 0
-105 106 521 0
105 -106 521 0
-105 -106 -521 0
107 108 -522 0
-107 108 522 0
107 -108 522 0
-107 -108 -522 0
109 110 -523 0
-109 110 523 0
109 -110 523 0
-109 -110 -523 0
111 112 -524 0
-111 112 524 0
111 -112 524 0
-111 -112 -524 0
113 114 -525 0
-113 114 525 0
113 -114 525 0
-113 -114 -525 0
115 116 -526 0
-115 116 526 0
115 -116 526 0
-115 -116 -526 0
117 118 -527 0
-117 118 527 0
117 -118 527 0
-117 -118 -527 0
119 120 -528 0
-119 120 528 0
119 -120 528 0
-119 -120 -528 0
121 122 -529 0
-121 122 529 0
121 -122 529 0
-121 -122 -529 0
123 124 -530 0
-123 124 530 0
123 -124 530 0
-123 -124 -530 0
125 126 -531 0
-125 126 531 0
125 -126 531 0
-125 -126 -531 0
127 128 -532 0
-127 128 532 0
127 -128 532 0
-127 -128 -532 0
129 130 -533 0
-129 130 533 0
129 -130 533 0
-129 -130 -533 0
131 132 -534 0
-131 132 534 0
131 -132 534 0
-131 -132 -534 0
133 134 -535 0
-133 134 535 0
133 -134 535 0
-133 -134 -535 0
135 136 -536 0
-135 136 536 0
135 -136 536 0
-135 -136 -536 0
137 138 -537 0
-137 138 537 0
137 -138 537 0
-137 -138 -537 0
139 140 -538 0
-139 140 538 0
139 -140 538 0
-139 -140 -538 0
141 142 -539 0
-141 142 539 0
141 -142 539 0
-141 -142 -539 0
143 144 -540 0
-143 144 540 0
143 -144 540 0
-143 -144 -540 0
145 146 -541 0
-145 146 541 0
145 -146 541 0
-145 -146 -541 0
147 148 -542 0
-147 148 542 0
147 -148 542 0
-147 -148 -542 0
149 150 -543 0
-149 150 543 0
149 -150 543 0
-149 -150 -543 0
151 152 -544 0
-151 152 544 0
151 -152 544 0
-151 -152 -544 0
153 154 -545 0
-153 154 545 0
153 -154 545 0
-153 -154 -545 0
155 156 -546 0
-155 156 546 0
155 -156 546 0
-155 -156 -546 0
157 158 -547 0
-157 158 547 0
157 -158 547 0
-157 -158 -547 0
159 160 -548 0
-159 160 548 0
159 -160 548 0
-159 -160 -548 0
161 162 -549 0
-161 162 549 0
161 -162 549 0
-161 -162 -549 0
163 164 -550 0
-163 164 550 0
163 -164 550 0
-163 -164 -550 0
165 166 -551 0
-165 166 551 0
165 -166 551 0
-165 -166 -551 0
167 168 -552 0
-167 168 552 0
167 -168 552 0
-167 -168 -552 0
169 170 -553 0
-169 170 553 0
169 -170 553 0
-169 -170 -553 0
171 172 -554 0
-171 172 554 0
171 -172 554 0
-171 -172 -554 0
173 174 -555 0
-173 174 555 0
173 -174 555 0
-173 -174 -555 0
175 176 -556 0
-175 176 556 0
175 -176 556 0
-175 -176 -556 0
177 178 -557 0
-177 178 557 0
177 -178 557 0
-177 -178 -557 0
179 180 -558 0
-179 180 558 0
179 -180 558 0
-179 -180 -558 0
181 182 -559 0
-181 182 559 0
181 -182 559 0
-181 -182 -559 0
183 184 -560 0
-183 184 560 0
183 -184 560 0
-183 -184 -560 0
185 186 -561 0
-185 186 561 0
185 -186 561 0
-185 -186 -561 0
187 188 -562 0
-187 188 562 0
187 -188 562 0
-187 -188 -562 0
189 190 -563 0
-189 190 563 0
189 -190 563 0
-189 -190 -563 0
191 192 -564 0
-191 192 564 0
191 -192 564 0
-191 -192 -564 0
193 194 -565 0
-193 194 565 0
193 -194 565 0
-193 -194 -565 0
195 196 -566 0
-195 196 566 0
195 -196 566 0
-195 -196 -566 0
197 198 -567 0
-197 198 567 0
197 -198 567 0
-197 -198 -567 0
199 200 -568 0
-199 200 568 0
199 -200 568 0
-199 -200 -568 0
201 202 -569 0
-201 202 569 0
201 -202 569 0
-201 -202 -569 0
203 204 -570 0
-203 204 570 0
203 -204 570 0
-203 -204 -570 0
205 206 -571 0
-205 206 571 0
205 -206 571 0
-205 -206 -571 0
207 208 -572 0
-207 208 572 0
207 -208 572 0
-207 -208 -572 0
209 210 -573 0
-209 210 573 0
209 -210 573 0
-209 -210 -573 0
211 212 -574 0
-211 212 574 0
211 -212 574 0
-211 -212 -574 0
213 214 -575 0
-213 214 575 0
213 -214 575 0
-213 -214 -575 0
215 216 -576 0
-215 216 576 0
215 -216 576 0
-215 -216 -576 0
217 218 -577 0
-217 218 577 0
217 -218 577 0
-217 -218 -577 0
219 220 -578 0
-219 220 578 0
219 -220 578 0
-219 -220 -578 0
221 222 -579 0
-221 222 579 0
221 -222 579 0
-221 -222 -579 0
223 224 -580 0
-223 224 580 0
223 -224 580 0
-223 -224 -580 0
225 226 -581 0
-225 226 581 0
225 -226 581 0
-225 -226 -581 0
227 228 -582 0
-227 228 582 0
227 -228 582 0
-227 -228 -582 0
229 230 -583 0
-229 230 583 0
229 -230 583 0
-229 -230 -583 0
231 232 -584 0
-231 232 584 0
231 -232 584 0
-231 -232 -584 0
233 234 -585 0
-233 234 585 0
233 -234 585 0
-233 -234 -585 0
235 236 -586 0
-235 236 586 0
235 -236 586 0
-235 -236 -586 0
237 238 -587 0
-237 238 587 0
237 -238 587 0
-237 -238 -587 0
239 240 -588 0
-239 240 588 0
239 -240 588 0
-239 -240 -588 0
241 242 -589 0
-241 242 589 0
241 -242 589 0
-241 -242 -589 0
243 244 -590 0
-243 244 590 0
243 -244 590 0
-243 -244 -590 0
245 246 -591 0
-245 246 591 0
245 -246 591 0
-245 -246 -591 0
247 248 -592 0
-247 248 592 0
247 -248 592 0
-247 -248 -592 0
249 250 -593 0
-249 250 593 0
249 -250 593 0
-249 -250 -593 0
251 252 -594 0
-251 252 594 0
251 -252 594 0
-251 -252 -594 0
253 254 -595 0
-253 254 595 0
253 -254 595 0
-253 -254 -595 0
255 256 -596 0
-255 256 596 0
255 -256 596 0
-255 -256 -596 0
257 258 -597 0
-257 258 597 0
257 -258 597 0
-257 -258 -597 0
259 260 -598 0
-259 260 598 0
259 -260 598 0
-259 -260 -598 0
261 262 -599 0
-261 262 599 0
261 -262 599 0
-261 -262 -599 0
263 264 -600 0
-263 264 600 0
263 -264 600 0
-263 -264 -600 0
265 266 -601 0
-265 266 601 0
265 -266 601 0
-265 -266 -601 0
267 268 -602 0
-267 268 602 0
267 -268 602 0
-267 -268 -602 0
269 270 -603 0
-269 270 603 0
269 -270 603 0
-269 -270 -603 0
271 272 -604 0
-271 272 604 0
271 -272 604 0
-271 -272 -604 0
273 274 -605 0
-273 274 605 0
273 -274 605 0
-273 -274 -605 0
275 276 -606 0
-275 276 606 0
275 -276 606 0
-275 -276 -606 0
277 278 -607 0
-277 278 607 0
277 -278 607 0
-277 -278 -607 0
279 280 -608 0
-279 280 608 0
279 -280 608 0
-279 -280 -608 0
281 282 -609 0
-281 282 609 0
281 -282 609 0
-281 -282 -609 0
283 284 -610 0
-283 284 610 0
283 -284 610 0
-283 -284 -610 0
285 286 -611 0
-285 286 611 0
285 -286 611 0
-285 -286 -611 0
287 288 -612 0
-287 288 612 0
287 -288 612 0
-287 -288 -612 0
289 290 -613 0
-289 290 613 0
289 -290 613 0
-289 -290 -613 0
291 292 -614 0
-291 292 614 0
291 -292 614 0
-291 -292 -614 0
293 294 -615 0
-293 294 615 0
293 -294 615 0
-293 -294 -615 0
295 296 -616 0
-295 296 616 0
295 -296 616 0
-295 -296 -616 0
297 298 -617 0
-297 298 617 0
297 -298 617 0
-297 -298 -617 0
299 300 -618 0
-299 300 618 0
299 -300 618 0
-299 -300 -618 0
301 302 -619 0
-301 302 619 0
301 -302 619 0
-301 -302 -619 0
303 304 -620 0
-303 304 620 0
303 -304 620 0
-303 -304 -620 0
305 306 -621 0
-305 306 621 0
305 -306 621 0
-305 -306 -621 0
307 308 -622 0
-307 308 622 0
307 -308 622 0
-307 -308 -622 0
309 310 -623 0
-309 310 623 0
309 -310 623 0
-309 -310 -623 0
311 312 -624 0
-311 312 624 0
311 -312 624 0
-311 -312 -624 0
313 314 -625 0
-313 314 625 0
313 -314 625 0
-313 -314 -625 0
315 316 -626 0
-315 316 626 0
315 -316 626 0
-315 -316 -626 0
317 318 -627 0
-317 318 627 0
317 -318 627 0
-317 -318 -627 0
319 320 -628 0
-319 320 628 0
319 -320 628 0
-319 -320 -628 0
321 322 -629 0
-321 322 629 0
321 -322 629 0
-321 -322 -629 0
323 324 -630 0
-323 324 630 0
323 -324 630 0
-323 -324 -630 0
325 326 -631 0
-325 326 631 0
325 -326 631 0
-325 -326 -631 0
327 328 -632 0
-327 328 632 0
327 -328 632 0
-327 -328 -632 0
329 330 -633 0
-329 330 633 0
329 -330 633 0
-329 -330 -633 0
331 332 -634 0
-331 332 634 0
331 -332 634 0
-331 -332 -634 0
333 334 -635 0
-333 334 635 0
333 -334 635 0
-333 -334 -635 0
335 336 -636 0
-335 336 636 0
335 -336 636 0
-335 -336 -636 0
337 338 -637 0
-337 338 637 0
337 -338 637 0
-337 -338 -637 0
339 340 -638 0
-339 340 638 0
339 -340 638 0
-339 -340 -638 0
341 342 -639 0
-341 342 639 0
341 -342 639 0
-341 -342 -639 0
343 344 -640 0
-343 344 640 0
343 -344 640 0
-343 -344 -640 0
345 346 -641 0
-345 346 641 0
345 -346 641 0
-345 -346 -641 0
347 348 -642 0
-347 348 642 0
347 -348 642 0
-347 -348 -642 0
349 350 -643 0
-349 350 643 0
349 -350 643 0
-349 -350 -643 0
351 352 -644 0
-351 352 644 0
351 -352 644 0
-351 -352 -644 0
353 354 -645 0
-353 354 645 0
353 -354 645 0
-353 -354 -645 0
355 356 -646 0
-355 356 646 0
355 -356 646 0
-355 -356 -646 0
357 358 -647 0
-357 358 647 0
357 -358 647 0
-357 -358 -647 0
359 360 -648 0
-359 360 648 0
359 -360 648 0
-359 -360 -648 0
361 362 -649 0
-361 362 649 0
361 -362 649 0
-361 -362 -649 0
363 364 -650 0
-363 364 650 0
363 -364 650 0
-363 -364 -650 0
365 366 -651 0
-365 366 651 0
365 -366 651 0
-365 -366 -651 0
367 368 -652 0
-367 368 652 0
367 -368 652 0
-367 -368 -652 0
369 370 -653 0
-369 370 653 0
369 -370 653 0
-369 -370 -653 0
371 372 -654 0
-371 372 654 0
371 -372 654 0
-371 -372 -654 0
373 374 -655 0
-373 374 655 0
373 -374 655 0
-373 -374 -655 0
375 376 -656 0
-375 376 656 0
375 -376 656 0
-375 -376 -656 0
377 378 -657 0
-377 378 657 0
377 -378 657 0
-377 -378 -657 0
379 380 -658 0
-379 380 658 0
379 -380 658 0
-379 -380 -658 0
381 382 -659 0
-381 382 659 0
381 -382 659 0
-381 -382 -659 0
383 384 -660 0
-383 384 660 0
383 -384 660 0
-383 -384 -660 0
385 386 -661 0
-385 386 661 0
385 -386 661 0
-385 -386 -661 0
387 388 -662 0
-387 388 662 0
387 -388 662 0
-387 -388 -662 0
389 390 -663 0
-389 390 663 0
389 -390 663 0
-389 -390 -663 0
391 392 -664 0
-391 392 664 0
391 -392 664 0
-391 -392 -664 0
393 394 -665 0
-393 394 665 0
393 -394 665 0
-393 -394 -665 0
395 396 -666 0
-395 396 666 0
395 -396 666 0
-395 -396 -666 0
397 398 -667 0
-397 398 667 0
397 -398 667 0
-397 -398 -667 0
399 400 -668 0
-399 400 668 0
399 -400 668 0
-399 -400 -668 0
401 402 -669 0
-401 402 669 0
401 -402 669 0
-401 -402 -669 0
403 404 -670 0
-403 404 670 0
403 -404 670 0
-403 -404 -670 0
405 406 -671 0
-405 406 671 0
405 -406 671 0
-405 -406 -671 0
407 408 -672 0
-407 408 672 0
407 -408 672 0
-407 -408 -672 0
409 410 -673 0
-409 410 673 0
409 -410 673 0
-409 -410 -673 0
411 412 -674 0
-411 412 674 0
411 -412 674 0
-411 -412 -674 0
413 414 -675 0
-413 414 675 0
413 -414 675 0
-413 -414 -675 0
415 416 -676 0
-415 416 676 0
415 -416 676 0
-415 -416 -676 0
417 418 -677 0
-417 418 677 0
417 -418 677 0
-417 -418 -677 0
419 420 -678 0
-419 420 678 0
419 -420 678 0
-419 -420 -678 0
421 422 -679 0
-421 422 679 0
421 -422 679 0
-421 -422 -679 0
423 424 -680 0
-423 424 680 0
423 -424 680 0
-423 -424 -680 0
425 426 -681 0
-425 426 681 0
425 -426 681 0
-425 -426 -681 0
427 428 -682 0
-427 428 682 0
427 -428 682 0
-427 -428 -682 0
429 430 -683 0
-429 430 683 0
429 -430 683 0
-429 -430 -683 0
431 432 -684 0
-431 432 684 0
431 -432 684 0
-431 -432 -684 0
433 434 -685 0
-433 434 685 0
433 -434 685 0
-433 -434 -685 0
435 436 -686 0
-435 436 686 0
435 -436 686 0
-435 -436 -686 0
437 438 -687 0
-437 438 687 0
437 -438 687 0
-437 -438 -687 0
439 440 -688 0
-439 440 688 0
439 -440 688 0
-439 -440 -688 0
441 442 -689 0
-441 442 689 0
441 -442 689 0
-441 -442 -689 0
443 444 -690 0
-443 444 690 0
443 -444 690 0
-443 -444 -690 0
445 446 -691 0
-445 446 691 0
445 -446 691 0
-445 -446 -691 0
447 448 -692 0
-447 448 692 0
447 -448 692 0
-447 -448 -692 0
449 450 -693 0
-449 450 693 0
449 -450 693 0
-449 -450 -693 0
451 452 -694 0
-451 452 694 0
451 -452 694 0
-451 -452 -694 0
453 454 -695 0
-453 454 695 0
453 -454 695 0
-453 -454 -695 0
455 456 -696 0
-455 456 696 0
455 -456 696 0
-455 -456 -696 0
457 458 -697 0
-457 458 697 0
457 -458 697 0
-457 -458 -697 0
459 460 -698 0
-459 460 698 0
459 -460 698 0
-459 -460 -698 0
461 462 -699 0
-461 462 699 0
461 -462 699 0
-461 -462 -699 0
463 464 -700 0
-463 464 700 0
463 -464 700 0
-463 -464 -700 0
469 470 -701 0
-469 470 701 0
469 -470 701 0
-469 -470 -701 0
471 472 -702 0
-471 472 702 0
471 -472 702 0
-471 -472 -702 0
473 474 -703 0
-473 474 703 0
473 -474 703 0
-473 -474 -703 0
475 476 -704 0
-475 476 704 0
475 -476 704 0
-475 -476 -704 0
477 478 -705 0
-477 478 705 0
477 -478 705 0
-477 -478 -705 0
479 480 -706 0
-479 480 706 0
479 -480 706 0
-479 -480 -706 0
481 482 -707 0
-481 482 707 0
481 -482 707 0
-481 -482 -707 0
483 484 -708 0
-483 484 708 0
483 -484 708 0
-483 -484 -708 0
485 486 -709 0
-485 486 709 0
485 -486 709 0
-485 -486 -709 0
487 488 -710 0
-487 488 710 0
487 -488 710 0
-487 -488 -710 0
489 490 -711 0
-489 490 711 0
489 -490 711 0
-489 -490 -711 0
491 492 -712 0
-491 492 712 0
491 -492 712 0
-491 -492 -712 0
493 494 -713 0
-493 494 713 0
493 -494 713 0
-493 -494 -713 0
495 496 -714 0
-495 496 714 0
495 -496 714 0
-495 -496 -714 0
497 498 -715 0
-497 498 715 0
497 -498 715 0
-497 -498 -715 0
499 500 -716 0
-499 500 716 0
499 -500 716 0
-499 -500 -716 0
501 502 -717 0
-501 502 717 0
501 -502 717 0
-501 -502 -717 0
503 504 -718 0
-503 504 718 0
503 -504 718 0
-503 -504 -718 0
505 506 -719 0
-505 506 719 0
505 -506 719 0
-505 -506 -719 0
507 508 -720 0
-507 508 720 0
507 -508 720 0
-507 -508 -720 0
509 510 -721 0
-509 510 721 0
509 -510 721 0
-509 -510 -721 0
511 512 -722 0
-511 512 722 0
511 -512 722 0
-511 -512 -722 0
513 514 -723 0
-513 514 723 0
513 -514 723 0
-513 -514 -723 0
515 516 -724 0
-515 516 724 0
515 -516 724 0
-515 -516 -724 0
517 518 -725 0
-517 518 725 0
517 -518 725 0
-517 -518 -725 0
519 520 -726 0
-519 520 726 0
519 -520 726 0
-519 -520 -726 0
521 522 -727 0
-521 522 727 0
521 -522 727 0
-521 -522 -727 0
523 524 -728 0
-523 524 728 0
523 -524 728 0
-523 -524 -728 0
525 526 -729 0
-525 526 729 0
525 -526 729 0
-525 -526 -729 0
527 528 -730 0
-527 528 730 0
527 -528 730 0
-527 -528 -730 0
529 530 -731 0
-529 530 731 0
529 -530 731 0
-529 -530 -731 0
531 532 -732 0
-531 532 732 0
531 -532 732 0
-531 -532 -732 0
533 534 -733 0
-533 534 733 0
533 -534 733 0
-533 -534 -733 0
535 536 -734 0
-535 536 734 0
535 -536 734 0
-535 -536 -734 0
537 538 -735 0
-537 538 735 0
537 -538 735 0
-537 -538 -735 0
539 540 -736 0
-539 540 736 0
539 -540 736 0
-539 -540 -736 0
541 542 -737 0
-541 542 737 0
541 -542 737 0
-541 -542 -737 0
543 544 -738 0
-543 544 738 0
543 -544 738 0
-543 -544 -738 0
545 546 -739 0
-545 546 739 0
545 -546 739 0
-545 -546 -739 0
547 548 -740 0
-547 548 740 0
547 -548 740 0
-547 -548 -740 0
549 550 -741 0
-549 550 741 0
549 -550 741 0
-549 -550 -741 0
551 552 -742 0
-551 552 742 0
551 -552 742 0
-551 -552 -742 0
553 554 -743 0
-553 554 743 0
553 -554 743 0
-553 -554 -743 0
555 556 -744 0
-555 556 744 0
555 -556 744 0
-555 -556 -744 0
557 558 -745 0
-557 558 745 0
557 -558 745 0
-557 -558 -745 0
559 560 -746 0
-559 560 746 0
559 -560 746 0
-559 -560 -746 0
561 562 -747 0
-561 562 747 0
561 -562 747 0
-561 -562 -747 0
563 564 -748 0
-563 564 748 0
563 -564 748 0
-563 -564 -748 0
565 566 -749 0
-565 566 749 0
565 -566 749 0
-565 -566 -749 0
567 568 -750 0
-567 568 750 0
567 -568 750 0
-567 -568 -750 0
569 570 -751 0
-569 570 751 0
569 -570 751 0
-569 -570 -751 0
571 572 -752 0
-571 572 752 0
571 -572 752 0
-571 -572 -752 0
573 574 -753 0
-573 574 753 0
573 -574 753 0
-573 -574 -753 0
575 576 -754 0
-575 576 754 0
575 -576 754 0
-575 -576 -754 0
577 578 -755 0
-577 578 755 0
577 -578 755 0
-577 -578 -755 0
579 580 -756 0
-579 580 756 0
579 -580 756 0
-579 -580 -756 0
581 582 -757 0
-581 582 757 0
581 -582 757 0
-581 -582 -757 0
583 584 -758 0
-583 584 758 0
583 -584 758 0
-583 -584 -758 0
585 586 -759 0
-585 586 759 0
585 -586 759 0
-585 -586 -759 0
587 588 -760 0
-587 588 760 0
587 -588 760 0
-587 -588 -760 0
589 590 -761 0
-589 590 761 0
589 -590 761 0
-589 -590 -761 0
591 592 -762 0
-591 592 762 0
591 -592 762 0
-591 -592 -762 0
593 594 -763 0
-593 594 763 0
593 -594 763 0
-593 -594 -763 0
595 596 -764 0
-595 596 764 0
595 -596 764 0
-595 -596 -764 0
597 598 -765 0
-597 598 765 0
597 -598 765 0
-597 -598 -765 0
599 600 -766 0
-599 600 766 0
599 -600 766 0
-599 -600 -766 0
601 602 -767 0
-601 602 767 0
601 -602 767 0
-601 -602 -767 0
603 604 -768 0
-603 604 768 0
603 -604 768 0
-603 -604 -768 0
605 606 -769 0
-605 606 769 0
605 -606 769 0
-605 -606 -769 0
607 608 -770 0
-607 608 770 0
607 -608 770 0
-607 -608 -770 0
609 610 -771 0
-609 610 771 0
609 -610 771 0
-609 -610 -771 0
611 612 -772 0
-611 612 772 0
611 -612 772 0
-611 -612 -772 0
613 614 -773 0
-613 614 773 0
613 -614 773 0
-613 -614 -773 0
615 616 -774 0
-615 616 774 0
615 -616 774 0
-615 -616 -774 0
617 618 -775 0
-617 618 775 0
617 -618 775 0
-617 -618 -775 0
619 620 -776 0
-619 620 776 0
619 -620 776 0
-619 -620 -776 0
621 622 -777 0
-621 622 777 0
621 -622 777 0
-621 -622 -777 0
623 624 -778 0
-623 624 778 0
623 -624 778 0
-623 -624 -778 0
625 626 -779 0
-625 626 779 0
625 -626 779 0
-625 -626 -779 0
627 628 -780 0
-627 628 780 0
627 -628 780 0
-627 -628 -780 0
629 630 -781 0
-629 630 781 0
629 -630 781 0
-629 -630 -781 0
631 632 -782 0
-631 632 782 0
631 -632 782 0
-631 -632 -782 0
633 634 -783 0
-633 634 783 0
633 -634 783 0
-633 -634 -783 0
635 636 -784 0
-635 636 784 0
635 -636 784 0
-635 -636 -784 0
637 638 -785 0
-637 638 785 0
637 -638 785 0
-637 -638 -785 0
639 640 -786 0
-639 640 786 0
639 -640 786 0
-639 -640 -786 0
641 642 -787 0
-641 642 787 0
641 -642 787 0
-641 -642 -787 0
643 644 -788 0
-643 644 788 0
643 -644 788 0
-643 -644 -788 0
645 646 -789 0
-645 646 789 0
645 -646 789 0
-645 -646 -789 0
647 648 -790 0
-647 648 790 0
647 -648 790 0
-647 -648 -790 0
649 650 -791 0
-649 650 791 0
649 -650 791 0
-649 -650 -791 0
651 652 -792 0
-651 652 792 0
651 -652 792 0
-651 -652 -792 0
653 654 -793 0
-653 654 793 0
653 -654 793 0
-653 -654 -793 0
655 656 -794 0
-655 656 794 0
655 -656 794 0
-655 -656 -794 0
657 658 -795 0
-657 658 795 0
657 -658 795 0
-657 -658 -795 0
659 660 -796 0
-659 660 796 0
659 -660 796 0
-659 -660 -796 0
661 662 -797 0
-661 662 797 0
661 -662 797 0
-661 -662 -797 0
663 664 -798 0
-663 664 798 0
663 -664 798 0
-663 -664 -798 0
665 666 -799 0
-665 666 799 0
665 -666 799 0
-665 -666 -799 0
667 668 -800 0
-667 668 800 0
667 -668 800 0
-667 -668 -800 0
669 670 -801 0
-669 670 801 0
669 -670 801 0
-669 -670 -801 0
671 672 -802 0
-671 672 802 0
671 -672 802 0
-671 -672 -802 0
673 674 -803 0
-673 674 803 0
673 -674 803 0
-673 -674 -803 0
675 676 -804 0
-675 676 804 0
675 -676 804 0
-675 -676 -804 0
677 678 -805 0
-677 678 805 0
677 -678 805 0
-677 -678 -805 0
679 680 -806 0
-679 680 806 0
679 -680 806 0
-679 -680 -806 0
681 682 -807 0
-681 682 807 0
681 -682 807 0
-681 -682 -807 0
683 684 -808 0
-683 684 808 0
683 -684 808 0
-683 -684 -808 0
685 686 -809 0
-685 686 809 0
685 -686 809 0
-685 -686 -809 0
687 688 -810 0
-687 688 810 0
687 -688 810 0
-687 -688 -810 0
689 690 -811 0
-689 690 811 0
689 -690 811 0
-689 -690 -811 0
691 692 -812 0
-691 692 812 0
691 -692 812 0
-691 -692 -812 0
693 694 -813 0
-693 694 813 0
693 -694 813 0
-693 -694 -813 0
695 696 -814 0
-695 696 814 0
695 -696 814 0
-695 -696 -814 0
697 698 -815 0
-697 698 815 0
697 -698 815 0
-697 -698 -815 0
699 700 -816 0
-699 700 816 0
699 -700 816 0
-699 -700 -816 0
701 702 -817 0
-701 702 817 0
701 -702 817 0
-701 -702 -817 0
703 704 -818 0
-703 704 818 0
703 -704 818 0
-703 -704 -818 0
705 706 -819 0
-705 706 819 0
705 -706 819 0
-705 -706 -819 0
707 708 -820 0
-707 708 820 0
707 -708 820 0
-707 -708 -820 0
709 710 -821 0
-709 710 821 0
709 -710 821 0
-709 -710 -821 0
711 712 -822 0
-711 712 822 0
711 -712 822 0
-711 -712 -822 0
713 714 -823 0
-713 714 823 0
713 -714 823 0
-713 -714 -823 0
715 716 -824 0
-715 716 824 0
715 -716 824 0
-715 -716 -824 0
717 718 -825 0
-717 718 825 0
717 -718 825 0
-717 -718 -825 0
719 720 -826 0
-719 720 826 0
719 -720 826 0
-719 -720 -826 0
721 722 -827 0
-721 722 827 0
721 -722 827 0
-721 -722 -827 0
723 724 -828 0
-723 724 828 0
723 -724 828 0
-723 -724 -828 0
725 726 -829 0
-725 726 829 0
725 -726 829 0
-725 -726 -829 0
727 728 -830 0
-727 728 830 0
727 -728 830 0
-727 -728 -830 0
729 730 -831 0
-729 730 831 0
729 -730 831 0
-729 -730 -831 0
731 732 -832 0
-731 732 832 0
731 -732 832 0
-731 -732 -832 0
733 734 -833 0
-733 734 833 0
733 -734 833 0
-733 -734 -833 0
735 736 -834 0
-735 736 834 0
735 -736 834 0
-735 -736 -834 0
737 738 -835 0
-737 738 835 0
737 -738 835 0
-737 -738 -835 0
739 740 -836 0
-739 740 836 0
739 -740 836 0
-739 -740 -836 0
741 742 -837 0
-741 742 837 0
741 -742 837 0
-741 -742 -837 0
743 744 -838 0
-743 744 838 0
743 -744 838 0
-743 -744 -838 0
745 746 -839 0
-745 746 839 0
745 -746 839 0
-745 -746 -839 0
747 748 -840 0
-747 748 840 0
747 -748 840 0
-747 -748 -840 0
749 750 -841 0
-749 750 841 0
749 -750 841 0
-749 -750 -841 0
751 752 -842 0
-751 752 842 0
751 -752 842 0
-751 -752 -842 0
753 754 -843 0
-753 754 843 0
753 -754 843 0
-753 -754 -843 0
755 756 -844 0
-755 756 844 0
755 -756 844 0
-755 -756 -844 0
757 758 -845 0
-757 758 845 0
757 -758 845 0
-757 -758 -845 0
759 760 -846 0
-759 760 846 0
759 -760 846 0
-759 -760 -846 0
761 762 -847 0
-761 762 847 0
761 -762 847 0
-761 -762 -847 0
763 764 -848 0
-763 764 848 0
763 -764 848 0
-763 -764 -848 0
765 766 -849 0
-765 766 849 0
765 -766 849 0
-765 -766 -849 0
767 768 -850 0
-767 768 850 0
767 -768 850 0
-767 -768 -850 0
769 770 -851 0
-769 770 851 0
769 -770 851 0
-769 -770 -851 0
771 772 -852 0
-771 772 852 0
771 -772 852 0
-771 -772 -852 0
773 774 -853 0
-773 774 853 0
773 -774 853 0
-773 -774 -853 0
775 776 -854 0
-775 776 854 0
775 -776 854 0
-775 -776 -854 0
777 778 -855 0
-777 778 855 0
777 -778 855 0
-777 -778 -855 0
779 780 -856 0
-779 780 856 0
779 -780 856 0
-779 -780 -856 0
781 782 -857 0
-781 782 857 0
781 -782 857 0
-781 -782 -857 0
783 784 -858 0
-783 784 858 0
783 -784 858 0
-783 -784 -858 0
785 786 -859 0
-785 786 859 0
785 -786 859 0
-785 -786 -859 0
787 788 -860 0
-787 788 860 0
787 -788 860 0
-787 -788 -860 0
789 790 -861 0
-789 790 861 0
789 -790 861 0
-789 -790 -861 0
791 792 -862 0
-791 792 862 0
791 -792 862 0
-791 -792 -862 0
793 794 -863 0
-793 794 863 0
793 -794 863 0
-793 -794 -863 0
795 796 -864 0
-795 796 864 0
795 -796 864 0
-795 -796 -864 0
797 798 -865 0
-797 798 865 0
797 -798 865 0
-797 -798 -865 0
799 800 -866 0
-799 800 866 0
799 -800 866 0
-799 -800 -866 0
801 802 -867 0
-801 802 867 0
801 -802 867 0
-801 -802 -867 0
803 804 -868 0
-803 804 868 0
803 -804 868 0
-803 -804 -868 0
805 806 -869 0
-805 806 869 0
805 -806 869 0
-805 -806 -869 0
807 808 -870 0
-807 808 870 0
807 -808 870 0
-807 -808 -870 0
809 810 -871 0
-809 810 871 0
809 -810 871 0
-809 -810 -871 0
811 812 -872 0
-811 812 872 0
811 -812 872 0
-811 -812 -872 0
813 814 -873 0
-813 814 873 0
813 -814 873 0
-813 -814 -873 0
815 816 -874 0
-815 816 874 0
815 -816 874 0
-815 -816 -874 0
817 818 -875 0
-817 818 875 0
817 -818 875 0
-817 -818 -875 0
819 820 -876 0
-819 820 876 0
819 -820 876 0
-819 -820 -876 0
821 822 -877 0
-821 822 877 0
821 -822 877 0
-821 -822 -877 0
823 824 -878 0
-823 824 878 0
823 -824 878 0
-823 -824 -878 0
825 826 -879 0
-825 826 879 0
825 -826 879 0
-825 -826 -879 0
827 828 -880 0
-827 828 880 0
827 -828 880 0
-827 -828 -880 0
829 830 -881 0
-829 830 881 0
829 -830 881 0
-829 -830 -881 0
831 832 -882 0
-831 832 882 0
831 -832 882 0
-831 -832 -882 0
833 834 -883 0
-833 834 883 0
833 -834 883 0
-833 -834 -883 0
835 836 -884 0
-835 836 884 0
835 -836 884 0
-835 -836 -884 0
837 838 -885 0
-837 838 885 0
837 -838 885 0
-837 -838 -885 0
839 840 -886 0
-839 840 886 0
839 -840 886 0
-839 -840 -886 0
841 842 -887 0
-841 842 887 0
841 -842 887 0
-841 -842 -887 0
843 844 -888 0
-843 844 888 0
843 -844 888 0
-843 -844 -888 0
845 846 -889 0
-845 846 889 0
845 -846 889 0
-845 -846 -889 0
847 848 -890 0
-847 848 890 0
847 -848 890 0
-847 -848 -890 0
849 850 -891 0
-849 850 891 0
849 -850 891 0
-849 -850 -891 0
851 852 -892 0
-851 852 892 0
851 -852 892 0
-851 -852 -892 0
853 854 -893 0
-853 854 893 0
853 -854 893 0
-853 -854 -893 0
855 856 -894 0
-855 856 894 0
855 -856 894 0
-855 -856 -894 0
857 858 -895 0
-857 858 895 0
857 -858 895 0
-857 -858 -895 0
859 860 -896 0
-859 860 896 0
859 -860 896 0
-859 -860 -896 0
861 862 -897 0
-861 862 897 0
861 -862 897 0
-861 -862 -897 0
863 864 -898 0
-863 864 898 0
863 -864 898 0
-863 -864 -898 0
865 866 -899 0
-865 866 899 0
865 -866 899 0
-865 -866 -899 0
867 868 -900 0
-867 868 900 0
867 -868 900 0
-867 -868 -900 0
869 870 -901 0
-869 870 901 0
869 -870 901 0
-869 -870 -901 0
871 872 -902 0
-871 872 902 0
871 -872 902 0
-871 -872 -902 0
873 874 -903 0
-873 874 903 0
873 -874 903 0
-873 -874 -903 0
875 876 -904 0
-875 876 904 0
875 -876 904 0
-875 -876 -904 0
877 878 -905 0
-877 878 905 0
877 -878 905 0
-877 -878 -905 0
879 880 -906 0
-879 880 906 0
879 -880 906 0
-879 -880 -906 0
881 882 -907 0
-881 882 907 0
881 -882 907 0
-881 -882 -907 0
883 884 -908 0
-883 884 908 0
883 -884 908 0
-883 -884 -908 0
885 886 -909 0
-885 886 909 0
885 -886 909 0
-885 -886 -909 0
887 888 -910 0
-887 888 910 0
887 -888 910 0
-887 -888 -910 0
889 890 -911 0
-889 890 911 0
889 -890 911 0
-889 -890 -911 0
891 892 -912 0
-891 892 912 0
891 -892 912 0
-891 -892 -912 0
893 894 -913 0
-893 894 913 0
893 -894 913 0
-893 -894 -913 0
895 896 -914 0
-895 896 914 0
895 -896 914 0
-895 -896 -914 0
897 898 -915 0
-897 898 915 0
897 -898 915 0
-897 -898 -915 0
899 900 -916 0
-899 900 916 0
899 -900 916 0
-899 -900 -916 0
901 902 -917 0
-901 902 917 0
901 -902 917 0
-901 -902 -917 0
903 465 -918 0
-903 465 918 0
903 -465 918 0
-903 -465 -918 0
904 905 -919 0
-904 905 919 0
904 -905 919 0
-904 -905 -919 0
906 907 -920 0
-906 907 920 0
906 -907 920 0
-906 -907 -920 0
908 909 -921 0
-908 909 921 0
908 -909 921 0
-908 -909 -921 0
910 911 -922 0
-910 911 922 0
910 -911 922 0
-910 -911 -922 0
912 913 -923 0
-912 913 923 0
912 -913 923 0
-912 -913 -923 0
914 915 -924 0
-914 915 924 0
914 -915 924 0
-914 -915 -924 0
916 917 -925 0
-916 917 925 0
916 -917 925 0
-916 -917 -925 0
919 920 -926 0
-919 920 926 0
919 -920 926 0
-919 -920 -926 0
921 922 -927 0
-921 922 927 0
921 -922 927 0
-921 -922 -927 0
923 924 -928 0
-923 924 928 0
923 -924 928 0
-923 -924 -928 0
925 918 -929 0
-925 918 929 0
925 -918 929 0
-925 -918 -929 0
926 927 -930 0
-926 927 930 0
926 -927 930 0
-926 -927 -930 0
928 929 -931 0
-928 929 931 0
928 -929 931 0
-928 -929 -931 0
930 931 -466 0
-930 931 466 0
930 -931 466 0
-930 -931 -466 0
